solving instance transportation 15 1 square
Set parameter TokenServer to value "licences.gerad.lan"
Set parameter MIPGap to value 1e-06
Set parameter FuncPieceError to value 1e-06
Set parameter Threads to value 1
Set parameter FuncPieces to value -2
Set parameter TimeLimit to value 3600
Gurobi Optimizer version 12.0.2 build v12.0.2rc0 (linux64 - "AlmaLinux 9.6 (Sage Margay)")

CPU model: Intel(R) Xeon(R) Gold 6258R CPU @ 2.70GHz, instruction set [SSE2|AVX|AVX2|AVX512]
Thread count: 56 physical cores, 56 logical processors, using up to 1 threads

Non-default parameters:
TimeLimit  3600
MIPGap  1e-06
Threads  1
FuncPieces  -2
FuncPieceError  1e-06

Optimize a model with 480 rows, 900 columns and 1350 nonzeros
Model fingerprint: 0x079b1936
Model has 225 function constraints treated as nonlinear
  225 POW
Variable types: 675 continuous, 225 integer (225 binary)
Coefficient statistics:
  Matrix range     [1e-03, 2e+02]
  Objective range  [1e+00, 1e+00]
  Bounds range     [1e+00, 1e+10]
  RHS range        [1e+00, 2e+02]
Warning: Model contains large bounds
         Consider reformulating model or setting NumericFocus parameter
         to avoid numerical issues.
Presolve removed 450 rows and 675 columns
Presolve time: 0.00s
Presolved: 30 rows, 225 columns, 450 nonzeros
Presolved model has 225 quadratic objective terms
Variable types: 225 continuous, 0 integer (0 binary)
Root relaxation presolve time: 0.00s
Root relaxation presolved: 30 rows, 225 columns, 450 nonzeros
Root relaxation presolved model has 225 quadratic objective terms
Root barrier log...

Ordering time: 0.00s

Barrier statistics:
 AA' NZ     : 2.250e+02
 Factor NZ  : 4.650e+02
 Factor Ops : 9.455e+03 (less than 1 second per iteration)
 Threads    : 1

                  Objective                Residual
Iter       Primal          Dual         Primal    Dual     Compl     Time
   0   5.98574915e+07 -6.10696148e+07  1.24e+04 7.59e+02  6.55e+05     0s
   1   5.06263715e+06 -6.48664792e+06  3.20e+03 1.95e+02  1.79e+05     0s
   2   2.86829442e+04 -1.49442600e+06  1.79e+02 1.08e+01  1.30e+04     0s
   3   1.69351344e+03 -7.91857147e+05  2.33e+01 1.40e+00  2.68e+03     0s
   4   6.42706364e+02 -3.88403239e+05  8.31e+00 5.01e-01  1.15e+03     0s
   5   3.03180464e+02 -1.75913901e+05  2.61e+00 1.63e-01  4.53e+02     0s
   6   1.77130517e+02 -8.23704472e+04  8.33e-01 5.53e-02  1.93e+02     0s
   7   1.46908922e+02 -2.31200927e+04  1.68e-01 1.26e-02  5.20e+01     0s
   8   1.37930245e+02 -6.25254130e+03  1.97e-02 1.32e-03  1.37e+01     0s
   9   1.30117081e+02 -2.86246964e+02  1.20e-03 7.84e-05  8.89e-01     0s
  10   1.14951241e+02 -6.50341582e+00  2.40e-04 1.77e-05  2.59e-01     0s
  11   1.05678815e+02  8.67344696e+01  3.32e-06 2.14e-07  3.96e-02     0s
  12   1.04802046e+02  1.02056654e+02  3.33e-07 2.58e-08  5.73e-03     0s
  13   1.04730441e+02  1.04695627e+02  1.23e-09 8.78e-11  7.26e-05     0s
  14   1.04728924e+02  1.04727992e+02  1.44e-11 1.05e-12  1.94e-06     0s
  15   1.04728801e+02  1.04728524e+02  1.23e-11 1.60e-12  5.78e-07     0s
  16   1.04728771e+02  1.04728756e+02  5.91e-13 1.34e-12  3.12e-08     0s
  17   1.04728770e+02  1.04728770e+02  1.68e-14 1.45e-12  3.58e-10     0s

Barrier solved model in 17 iterations and 0.00 seconds (0.00 work units)
Optimal objective 1.04728770e+02


Root relaxation: objective 1.047288e+02, 0 iterations, 0.00 seconds (0.00 work units)

    Nodes    |    Current Node    |     Objective Bounds      |     Work
 Expl Unexpl |  Obj  Depth IntInf | Incumbent    BestBd   Gap | It/Node Time

*    0     0               0     104.7287700  104.72877  0.00%     -    0s

Explored 1 nodes (0 simplex iterations) in 0.00 seconds (0.00 work units)
Thread count was 1 (of 56 available processors)

Solution count 1: 104.729 

Optimal solution found (tolerance 1.00e-06)
Best objective 1.047287700005e+02, best bound 1.047287700005e+02, gap 0.0000%

User-callback calls 345, time in user-callback 0.00 sec
primal_bound = 104.72877000046944, dual_bound = 104.72877000046941, gap = 2.7138397052000717e-14, time = 0.02
